solution status: optimal solution found
objective value:                                    0
one.thingy.devices[1].thingy.v10_y                   21 	(obj:0)
one.thingy.devices[1].thingy.v10_z                   22 	(obj:0)
one.ctrl_a[9].hole_y                               24 	(obj:0)
one.ctrl_a[9].hole_z                               22 	(obj:0)
one.ctrl_a[9].flush_y                              25 	(obj:0)
one.ctrl_a[9].flush_z                              15 	(obj:0)
one.ctrl_a[7].flush_y                              23 	(obj:0)
one.ctrl_a[7].flush_z                              16 	(obj:0)
one.thingy.devices[2].thingy.v11_y                   24 	(obj:0)
one.thingy.devices[2].thingy.v11_z                   20 	(obj:0)
one.pinholes[3].hole_out_b_y                       23 	(obj:0)
one.pinholes[3].hole_out_b_z                       20 	(obj:0)
one.thingy.devices[0].thingy.v11_y                   21 	(obj:0)
one.thingy.devices[0].thingy.v11_z                   25 	(obj:0)
one.pinholes[1].hole_out_b_y                       23 	(obj:0)
one.pinholes[1].hole_out_b_z                       24 	(obj:0)
one.ctrl_a[8].flush_y                              21 	(obj:0)
one.ctrl_a[8].flush_z                              17 	(obj:0)
one.thingy.devices[3].thingy.v10_y                   23 	(obj:0)
one.thingy.devices[3].thingy.v10_z                   17 	(obj:0)
one.thingy.devices[0].thingy.v10_y                   21 	(obj:0)
one.thingy.devices[0].thingy.v10_z                   24 	(obj:0)
one.pinholes[0].hole_out_b_y                       22 	(obj:0)
one.pinholes[0].hole_out_b_z                       20 	(obj:0)
one.ctrl_a[8].hole_y                               24 	(obj:0)
one.ctrl_a[8].hole_z                               24 	(obj:0)
one.thingy.devices[1].thingy.v11_y                   23 	(obj:0)
one.thingy.devices[1].thingy.v11_z                   22 	(obj:0)
one.thingy.devices[3].thingy.v11_y                   24 	(obj:0)
one.thingy.devices[3].thingy.v11_z                   17 	(obj:0)
one.ctrl_a[7].hole_y                               22 	(obj:0)
one.ctrl_a[7].hole_z                               24 	(obj:0)
one.pinholes[2].hole_out_b_y                       22 	(obj:0)
one.pinholes[2].hole_out_b_z                       22 	(obj:0)
one.thingy.devices[2].thingy.v10_y                   24 	(obj:0)
one.thingy.devices[2].thingy.v10_z                   21 	(obj:0)
